c File: instances/24_0.25_3.col
c
c Description: Random graph of size 24 vertices and P(0.25) of edges between any two vertices.
p col 24 276
e 1 4
e 1 7
e 1 13
e 1 14
e 1 17
e 1 21
e 1 23
e 1 24
e 2 9
e 2 11
e 2 12
e 2 15
e 2 21
e 3 8
e 3 12
e 3 13
e 3 17
e 3 24
e 4 6
e 4 7
e 4 8
e 4 14
e 4 17
e 4 22
e 5 11
e 5 23
e 6 8
e 6 11
e 6 19
e 7 10
e 7 11
e 7 17
e 7 18
e 8 9
e 8 12
e 8 15
e 8 16
e 8 21
e 8 22
e 8 23
e 8 24
e 9 20
e 9 21
e 10 12
e 10 13
e 10 14
e 10 16
e 12 17
e 12 23
e 13 16
e 13 21
e 13 24
e 14 15
e 14 20
e 15 19
e 16 24
e 17 21
e 17 23
e 19 20
e 19 22
e 21 23
e 22 23
e 22 24